data/lp_files/q3/51_4.lp
\ Model foo
\ LP format - for model browsing. Use MPS format to capture full model detail.
Minimize
  z
Subject To
 allocateEach[1]: x[1,1] + x[2,1] + x[3,1] = 1
 allocateEach[2]: x[1,2] + x[2,2] + x[3,2] = 1
 allocateEach[3]: x[1,3] + x[2,3] + x[3,3] = 1
 allocateEach[4]: x[1,4] + x[2,4] + x[3,4] = 1
 allocateEach[5]: x[1,5] + x[2,5] + x[3,5] = 1
 allocateEach[6]: x[1,6] + x[2,6] + x[3,6] = 1
 allocateEach[7]: x[1,7] + x[2,7] + x[3,7] = 1
 allocateEach[8]: x[1,8] + x[2,8] + x[3,8] = 1
 allocateEach[9]: x[1,9] + x[2,9] + x[3,9] = 1
 allocateEach[10]: x[1,10] + x[2,10] + x[3,10] = 1
 allocateEach[11]: x[1,11] + x[2,11] + x[3,11] = 1
 allocateAllCash: cashProportion[1] + cashProportion[2] + cashProportion[3]
   = 1
 findWorstP[1,2]: z + 0.0431406384814495 cashProportion[1]
   - 0.0431406384814495 cashProportion[2] + 0.0621742881794651 x[1,1]
   + 0.0478688524590164 x[1,2] + 0.1515616911130285 x[1,3]
   + 0.1619844693701467 x[1,4] + 0.1155823986194996 x[1,5]
   + 0.0943572044866264 x[1,6] + 0.0367385677308024 x[1,7]
   + 0.0220189818809318 x[1,8] + 0.1649352890422779 x[1,9]
   + 0.0406212251941329 x[1,10] + 0.059016393442623 x[1,11]
   - 0.0621742881794651 x[2,1] - 0.0478688524590164 x[2,2]
   - 0.1515616911130285 x[2,3] - 0.1619844693701467 x[2,4]
   - 0.1155823986194996 x[2,5] - 0.0943572044866264 x[2,6]
   - 0.0367385677308024 x[2,7] - 0.0220189818809318 x[2,8]
   - 0.1649352890422779 x[2,9] - 0.0406212251941329 x[2,10]
   - 0.059016393442623 x[2,11] >= 0
 findWorstP[1,3]: z + 0.0431406384814495 cashProportion[1]
   - 0.0431406384814495 cashProportion[3] + 0.0621742881794651 x[1,1]
   + 0.0478688524590164 x[1,2] + 0.1515616911130285 x[1,3]
   + 0.1619844693701467 x[1,4] + 0.1155823986194996 x[1,5]
   + 0.0943572044866264 x[1,6] + 0.0367385677308024 x[1,7]
   + 0.0220189818809318 x[1,8] + 0.1649352890422779 x[1,9]
   + 0.0406212251941329 x[1,10] + 0.059016393442623 x[1,11]
   - 0.0621742881794651 x[3,1] - 0.0478688524590164 x[3,2]
   - 0.1515616911130285 x[3,3] - 0.1619844693701467 x[3,4]
   - 0.1155823986194996 x[3,5] - 0.0943572044866264 x[3,6]
   - 0.0367385677308024 x[3,7] - 0.0220189818809318 x[3,8]
   - 0.1649352890422779 x[3,9] - 0.0406212251941329 x[3,10]
   - 0.059016393442623 x[3,11] >= 0
 findWorstP[2,1]: z - 0.0388138487812452 cashProportion[1]
   + 0.0388138487812452 cashProportion[2] - 0.1171557211613104 x[1,1]
   - 0.0446980282564819 x[1,2] - 0.0247942866014594 x[1,3]
   - 0.0927029964291259 x[1,4] - 0.1383325570563577 x[1,5]
   - 0.0390001552553951 x[1,6] - 0.1495264710448688 x[1,7]
   - 0.1401335196398075 x[1,8] - 0.0880763856544015 x[1,9]
   - 0.1127154168607359 x[1,10] - 0.0140506132588107 x[1,11]
   + 0.1171557211613104 x[2,1] + 0.0446980282564819 x[2,2]
   + 0.0247942866014594 x[2,3] + 0.0927029964291259 x[2,4]
   + 0.1383325570563577 x[2,5] + 0.0390001552553951 x[2,6]
   + 0.1495264710448688 x[2,7] + 0.1401335196398075 x[2,8]
   + 0.0880763856544015 x[2,9] + 0.1127154168607359 x[2,10]
   + 0.0140506132588107 x[2,11] >= 0
 findWorstP[2,3]: z + 0.0388138487812452 cashProportion[2]
   - 0.0388138487812452 cashProportion[3] + 0.1171557211613104 x[2,1]
   + 0.0446980282564819 x[2,2] + 0.0247942866014594 x[2,3]
   + 0.0927029964291259 x[2,4] + 0.1383325570563577 x[2,5]
   + 0.0390001552553951 x[2,6] + 0.1495264710448688 x[2,7]
   + 0.1401335196398075 x[2,8] + 0.0880763856544015 x[2,9]
   + 0.1127154168607359 x[2,10] + 0.0140506132588107 x[2,11]
   - 0.1171557211613104 x[3,1] - 0.0446980282564819 x[3,2]
   - 0.0247942866014594 x[3,3] - 0.0927029964291259 x[3,4]
   - 0.1383325570563577 x[3,5] - 0.0390001552553951 x[3,6]
   - 0.1495264710448688 x[3,7] - 0.1401335196398075 x[3,8]
   - 0.0880763856544015 x[3,9] - 0.1127154168607359 x[3,10]
   - 0.0140506132588107 x[3,11] >= 0
 findWorstP[3,1]: z - 0.0393199226183923 cashProportion[1]
   + 0.0393199226183923 cashProportion[3] - 0.1186360705242132 x[1,1]
   - 0.00314559380947138 x[1,2] - 0.0525471445872195 x[1,3]
   - 0.0339409572041962 x[1,4] - 0.0668438684512669 x[1,5]
   - 0.062219845551344 x[1,6] - 0.0908290212484862 x[1,7]
   - 0.1503279281546374 x[1,8] - 0.0890045768389928 x[1,9]
   - 0.1384061276167409 x[1,10] - 0.1547789433950394 x[1,11]
   + 0.1186360705242132 x[3,1] + 0.00314559380947138 x[3,2]
   + 0.0525471445872195 x[3,3] + 0.0339409572041962 x[3,4]
   + 0.0668438684512669 x[3,5] + 0.062219845551344 x[3,6]
   + 0.0908290212484862 x[3,7] + 0.1503279281546374 x[3,8]
   + 0.0890045768389928 x[3,9] + 0.1384061276167409 x[3,10]
   + 0.1547789433950394 x[3,11] >= 0
 findWorstP[3,2]: z - 0.0393199226183923 cashProportion[2]
   + 0.0393199226183923 cashProportion[3] - 0.1186360705242132 x[2,1]
   - 0.00314559380947138 x[2,2] - 0.0525471445872195 x[2,3]
   - 0.0339409572041962 x[2,4] - 0.0668438684512669 x[2,5]
   - 0.062219845551344 x[2,6] - 0.0908290212484862 x[2,7]
   - 0.1503279281546374 x[2,8] - 0.0890045768389928 x[2,9]
   - 0.1384061276167409 x[2,10] - 0.1547789433950394 x[2,11]
   + 0.1186360705242132 x[3,1] + 0.00314559380947138 x[3,2]
   + 0.0525471445872195 x[3,3] + 0.0339409572041962 x[3,4]
   + 0.0668438684512669 x[3,5] + 0.062219845551344 x[3,6]
   + 0.0908290212484862 x[3,7] + 0.1503279281546374 x[3,8]
   + 0.0890045768389928 x[3,9] + 0.1384061276167409 x[3,10]
   + 0.1547789433950394 x[3,11] >= 0
Bounds
 z <= 1
 -infinity <= cashProportion[1] <= 1
 -infinity <= cashProportion[2] <= 1
 -infinity <= cashProportion[3] <= 1
Binaries
 x[1,1] x[1,2] x[1,3] x[1,4] x[1,5] x[1,6] x[1,7] x[1,8] x[1,9] x[1,10]
 x[1,11] x[2,1] x[2,2] x[2,3] x[2,4] x[2,5] x[2,6] x[2,7] x[2,8] x[2,9]
 x[2,10] x[2,11] x[3,1] x[3,2] x[3,3] x[3,4] x[3,5] x[3,6] x[3,7] x[3,8]
 x[3,9] x[3,10] x[3,11]
End
