data/mps_files/q3/51_4.mps
NAME foo
ROWS
 N  OBJ
 E  allocateEach[1]
 E  allocateEach[2]
 E  allocateEach[3]
 E  allocateEach[4]
 E  allocateEach[5]
 E  allocateEach[6]
 E  allocateEach[7]
 E  allocateEach[8]
 E  allocateEach[9]
 E  allocateEach[10]
 E  allocateEach[11]
 E  allocateAllCash
 G  findWorstP[1,2]
 G  findWorstP[1,3]
 G  findWorstP[2,1]
 G  findWorstP[2,3]
 G  findWorstP[3,1]
 G  findWorstP[3,2]
COLUMNS
    z         OBJ       1
    z         findWorstP[1,2]  1
    z         findWorstP[1,3]  1
    z         findWorstP[2,1]  1
    z         findWorstP[2,3]  1
    z         findWorstP[3,1]  1
    z         findWorstP[3,2]  1
    cashProportion[1]  allocateAllCash  1
    cashProportion[1]  findWorstP[1,2]  4.3140638481449535e-02
    cashProportion[1]  findWorstP[1,3]  4.3140638481449535e-02
    cashProportion[1]  findWorstP[2,1]  -3.8813848781245157e-02
    cashProportion[1]  findWorstP[3,1]  -3.9319922618392289e-02
    cashProportion[2]  allocateAllCash  1
    cashProportion[2]  findWorstP[1,2]  -4.3140638481449535e-02
    cashProportion[2]  findWorstP[2,1]  3.8813848781245157e-02
    cashProportion[2]  findWorstP[2,3]  3.8813848781245157e-02
    cashProportion[2]  findWorstP[3,2]  -3.9319922618392289e-02
    cashProportion[3]  allocateAllCash  1
    cashProportion[3]  findWorstP[1,3]  -4.3140638481449535e-02
    cashProportion[3]  findWorstP[2,3]  -3.8813848781245157e-02
    cashProportion[3]  findWorstP[3,1]  3.9319922618392289e-02
    cashProportion[3]  findWorstP[3,2]  3.9319922618392289e-02
    MARKER    'MARKER'                 'INTORG'
    x[1,1]    allocateEach[1]  1
    x[1,1]    findWorstP[1,2]  6.2174288179465069e-02
    x[1,1]    findWorstP[1,3]  6.2174288179465069e-02
    x[1,1]    findWorstP[2,1]  -1.1715572116131039e-01
    x[1,1]    findWorstP[3,1]  -1.1863607052421321e-01
    x[1,2]    allocateEach[2]  1
    x[1,2]    findWorstP[1,2]  0.0478688524590164
    x[1,2]    findWorstP[1,3]  0.0478688524590164
    x[1,2]    findWorstP[2,1]  -4.4698028256481920e-02
    x[1,2]    findWorstP[3,1]  -3.1455938094713831e-03
    x[1,3]    allocateEach[3]  1
    x[1,3]    findWorstP[1,2]  1.5156169111302850e-01
    x[1,3]    findWorstP[1,3]  1.5156169111302850e-01
    x[1,3]    findWorstP[2,1]  -2.4794286601459409e-02
    x[1,3]    findWorstP[3,1]  -5.2547144587219458e-02
    x[1,4]    allocateEach[4]  1
    x[1,4]    findWorstP[1,2]  1.6198446937014671e-01
    x[1,4]    findWorstP[1,3]  1.6198446937014671e-01
    x[1,4]    findWorstP[2,1]  -9.2702996429125925e-02
    x[1,4]    findWorstP[3,1]  -3.3940957204196223e-02
    x[1,5]    allocateEach[5]  1
    x[1,5]    findWorstP[1,2]  1.1558239861949958e-01
    x[1,5]    findWorstP[1,3]  1.1558239861949958e-01
    x[1,5]    findWorstP[2,1]  -1.3833255705635775e-01
    x[1,5]    findWorstP[3,1]  -6.6843868451266886e-02
    x[1,6]    allocateEach[6]  1
    x[1,6]    findWorstP[1,2]  9.4357204486626420e-02
    x[1,6]    findWorstP[1,3]  9.4357204486626420e-02
    x[1,6]    findWorstP[2,1]  -3.9000155255395130e-02
    x[1,6]    findWorstP[3,1]  -6.2219845551343959e-02
    x[1,7]    allocateEach[7]  1
    x[1,7]    findWorstP[1,2]  3.6738567730802425e-02
    x[1,7]    findWorstP[1,3]  3.6738567730802425e-02
    x[1,7]    findWorstP[2,1]  -1.4952647104486883e-01
    x[1,7]    findWorstP[3,1]  -9.0829021248486186e-02
    x[1,8]    allocateEach[8]  1
    x[1,8]    findWorstP[1,2]  2.2018981880931841e-02
    x[1,8]    findWorstP[1,3]  2.2018981880931841e-02
    x[1,8]    findWorstP[2,1]  -1.4013351963980750e-01
    x[1,8]    findWorstP[3,1]  -1.5032792815463739e-01
    x[1,9]    allocateEach[9]  1
    x[1,9]    findWorstP[1,2]  1.6493528904227786e-01
    x[1,9]    findWorstP[1,3]  1.6493528904227786e-01
    x[1,9]    findWorstP[2,1]  -8.8076385654401512e-02
    x[1,9]    findWorstP[3,1]  -8.9004576838992780e-02
    x[1,10]   allocateEach[10]  1
    x[1,10]   findWorstP[1,2]  4.0621225194132880e-02
    x[1,10]   findWorstP[1,3]  4.0621225194132880e-02
    x[1,10]   findWorstP[2,1]  -1.1271541686073593e-01
    x[1,10]   findWorstP[3,1]  -1.3840612761674087e-01
    x[1,11]   allocateEach[11]  1
    x[1,11]   findWorstP[1,2]  5.9016393442622966e-02
    x[1,11]   findWorstP[1,3]  5.9016393442622966e-02
    x[1,11]   findWorstP[2,1]  -1.4050613258810747e-02
    x[1,11]   findWorstP[3,1]  -1.5477894339503939e-01
    x[2,1]    allocateEach[1]  1
    x[2,1]    findWorstP[1,2]  -6.2174288179465069e-02
    x[2,1]    findWorstP[2,1]  1.1715572116131039e-01
    x[2,1]    findWorstP[2,3]  1.1715572116131039e-01
    x[2,1]    findWorstP[3,2]  -1.1863607052421321e-01
    x[2,2]    allocateEach[2]  1
    x[2,2]    findWorstP[1,2]  -0.0478688524590164
    x[2,2]    findWorstP[2,1]  4.4698028256481920e-02
    x[2,2]    findWorstP[2,3]  4.4698028256481920e-02
    x[2,2]    findWorstP[3,2]  -3.1455938094713831e-03
    x[2,3]    allocateEach[3]  1
    x[2,3]    findWorstP[1,2]  -1.5156169111302850e-01
    x[2,3]    findWorstP[2,1]  2.4794286601459409e-02
    x[2,3]    findWorstP[2,3]  2.4794286601459409e-02
    x[2,3]    findWorstP[3,2]  -5.2547144587219458e-02
    x[2,4]    allocateEach[4]  1
    x[2,4]    findWorstP[1,2]  -1.6198446937014671e-01
    x[2,4]    findWorstP[2,1]  9.2702996429125925e-02
    x[2,4]    findWorstP[2,3]  9.2702996429125925e-02
    x[2,4]    findWorstP[3,2]  -3.3940957204196223e-02
    x[2,5]    allocateEach[5]  1
    x[2,5]    findWorstP[1,2]  -1.1558239861949958e-01
    x[2,5]    findWorstP[2,1]  1.3833255705635775e-01
    x[2,5]    findWorstP[2,3]  1.3833255705635775e-01
    x[2,5]    findWorstP[3,2]  -6.6843868451266886e-02
    x[2,6]    allocateEach[6]  1
    x[2,6]    findWorstP[1,2]  -9.4357204486626420e-02
    x[2,6]    findWorstP[2,1]  3.9000155255395130e-02
    x[2,6]    findWorstP[2,3]  3.9000155255395130e-02
    x[2,6]    findWorstP[3,2]  -6.2219845551343959e-02
    x[2,7]    allocateEach[7]  1
    x[2,7]    findWorstP[1,2]  -3.6738567730802425e-02
    x[2,7]    findWorstP[2,1]  1.4952647104486883e-01
    x[2,7]    findWorstP[2,3]  1.4952647104486883e-01
    x[2,7]    findWorstP[3,2]  -9.0829021248486186e-02
    x[2,8]    allocateEach[8]  1
    x[2,8]    findWorstP[1,2]  -2.2018981880931841e-02
    x[2,8]    findWorstP[2,1]  1.4013351963980750e-01
    x[2,8]    findWorstP[2,3]  1.4013351963980750e-01
    x[2,8]    findWorstP[3,2]  -1.5032792815463739e-01
    x[2,9]    allocateEach[9]  1
    x[2,9]    findWorstP[1,2]  -1.6493528904227786e-01
    x[2,9]    findWorstP[2,1]  8.8076385654401512e-02
    x[2,9]    findWorstP[2,3]  8.8076385654401512e-02
    x[2,9]    findWorstP[3,2]  -8.9004576838992780e-02
    x[2,10]   allocateEach[10]  1
    x[2,10]   findWorstP[1,2]  -4.0621225194132880e-02
    x[2,10]   findWorstP[2,1]  1.1271541686073593e-01
    x[2,10]   findWorstP[2,3]  1.1271541686073593e-01
    x[2,10]   findWorstP[3,2]  -1.3840612761674087e-01
    x[2,11]   allocateEach[11]  1
    x[2,11]   findWorstP[1,2]  -5.9016393442622966e-02
    x[2,11]   findWorstP[2,1]  1.4050613258810747e-02
    x[2,11]   findWorstP[2,3]  1.4050613258810747e-02
    x[2,11]   findWorstP[3,2]  -1.5477894339503939e-01
    x[3,1]    allocateEach[1]  1
    x[3,1]    findWorstP[1,3]  -6.2174288179465069e-02
    x[3,1]    findWorstP[2,3]  -1.1715572116131039e-01
    x[3,1]    findWorstP[3,1]  1.1863607052421321e-01
    x[3,1]    findWorstP[3,2]  1.1863607052421321e-01
    x[3,2]    allocateEach[2]  1
    x[3,2]    findWorstP[1,3]  -0.0478688524590164
    x[3,2]    findWorstP[2,3]  -4.4698028256481920e-02
    x[3,2]    findWorstP[3,1]  3.1455938094713831e-03
    x[3,2]    findWorstP[3,2]  3.1455938094713831e-03
    x[3,3]    allocateEach[3]  1
    x[3,3]    findWorstP[1,3]  -1.5156169111302850e-01
    x[3,3]    findWorstP[2,3]  -2.4794286601459409e-02
    x[3,3]    findWorstP[3,1]  5.2547144587219458e-02
    x[3,3]    findWorstP[3,2]  5.2547144587219458e-02
    x[3,4]    allocateEach[4]  1
    x[3,4]    findWorstP[1,3]  -1.6198446937014671e-01
    x[3,4]    findWorstP[2,3]  -9.2702996429125925e-02
    x[3,4]    findWorstP[3,1]  3.3940957204196223e-02
    x[3,4]    findWorstP[3,2]  3.3940957204196223e-02
    x[3,5]    allocateEach[5]  1
    x[3,5]    findWorstP[1,3]  -1.1558239861949958e-01
    x[3,5]    findWorstP[2,3]  -1.3833255705635775e-01
    x[3,5]    findWorstP[3,1]  6.6843868451266886e-02
    x[3,5]    findWorstP[3,2]  6.6843868451266886e-02
    x[3,6]    allocateEach[6]  1
    x[3,6]    findWorstP[1,3]  -9.4357204486626420e-02
    x[3,6]    findWorstP[2,3]  -3.9000155255395130e-02
    x[3,6]    findWorstP[3,1]  6.2219845551343959e-02
    x[3,6]    findWorstP[3,2]  6.2219845551343959e-02
    x[3,7]    allocateEach[7]  1
    x[3,7]    findWorstP[1,3]  -3.6738567730802425e-02
    x[3,7]    findWorstP[2,3]  -1.4952647104486883e-01
    x[3,7]    findWorstP[3,1]  9.0829021248486186e-02
    x[3,7]    findWorstP[3,2]  9.0829021248486186e-02
    x[3,8]    allocateEach[8]  1
    x[3,8]    findWorstP[1,3]  -2.2018981880931841e-02
    x[3,8]    findWorstP[2,3]  -1.4013351963980750e-01
    x[3,8]    findWorstP[3,1]  1.5032792815463739e-01
    x[3,8]    findWorstP[3,2]  1.5032792815463739e-01
    x[3,9]    allocateEach[9]  1
    x[3,9]    findWorstP[1,3]  -1.6493528904227786e-01
    x[3,9]    findWorstP[2,3]  -8.8076385654401512e-02
    x[3,9]    findWorstP[3,1]  8.9004576838992780e-02
    x[3,9]    findWorstP[3,2]  8.9004576838992780e-02
    x[3,10]   allocateEach[10]  1
    x[3,10]   findWorstP[1,3]  -4.0621225194132880e-02
    x[3,10]   findWorstP[2,3]  -1.1271541686073593e-01
    x[3,10]   findWorstP[3,1]  1.3840612761674087e-01
    x[3,10]   findWorstP[3,2]  1.3840612761674087e-01
    x[3,11]   allocateEach[11]  1
    x[3,11]   findWorstP[1,3]  -5.9016393442622966e-02
    x[3,11]   findWorstP[2,3]  -1.4050613258810747e-02
    x[3,11]   findWorstP[3,1]  1.5477894339503939e-01
    x[3,11]   findWorstP[3,2]  1.5477894339503939e-01
    MARKER    'MARKER'                 'INTEND'
RHS
    RHS1      allocateEach[1]  1
    RHS1      allocateEach[2]  1
    RHS1      allocateEach[3]  1
    RHS1      allocateEach[4]  1
    RHS1      allocateEach[5]  1
    RHS1      allocateEach[6]  1
    RHS1      allocateEach[7]  1
    RHS1      allocateEach[8]  1
    RHS1      allocateEach[9]  1
    RHS1      allocateEach[10]  1
    RHS1      allocateEach[11]  1
    RHS1      allocateAllCash  1
BOUNDS
 UP BND1      z         1
 MI BND1      cashProportion[1]
 UP BND1      cashProportion[1]  1
 MI BND1      cashProportion[2]
 UP BND1      cashProportion[2]  1
 MI BND1      cashProportion[3]
 UP BND1      cashProportion[3]  1
 BV BND1      x[1,1]  
 BV BND1      x[1,2]  
 BV BND1      x[1,3]  
 BV BND1      x[1,4]  
 BV BND1      x[1,5]  
 BV BND1      x[1,6]  
 BV BND1      x[1,7]  
 BV BND1      x[1,8]  
 BV BND1      x[1,9]  
 BV BND1      x[1,10] 
 BV BND1      x[1,11] 
 BV BND1      x[2,1]  
 BV BND1      x[2,2]  
 BV BND1      x[2,3]  
 BV BND1      x[2,4]  
 BV BND1      x[2,5]  
 BV BND1      x[2,6]  
 BV BND1      x[2,7]  
 BV BND1      x[2,8]  
 BV BND1      x[2,9]  
 BV BND1      x[2,10] 
 BV BND1      x[2,11] 
 BV BND1      x[3,1]  
 BV BND1      x[3,2]  
 BV BND1      x[3,3]  
 BV BND1      x[3,4]  
 BV BND1      x[3,5]  
 BV BND1      x[3,6]  
 BV BND1      x[3,7]  
 BV BND1      x[3,8]  
 BV BND1      x[3,9]  
 BV BND1      x[3,10] 
 BV BND1      x[3,11] 
ENDATA
